% seed = 9566400

mint = 49;
% maxt = 206;

nActs = 42;
dur = [0,2,10,2,2,2,4,4,2,5,7,2,1,2,9,9,9,8,8,3,9,9,3,4,3,1,3,10,8,6,5,7,9,9,8,1,1,2,8,3,6,0];

nSkills = 4;
sreq = [| 0,0,0,0,
	| 3,0,0,1,
	| 5,0,4,0,
	| 0,3,5,0,
	| 5,0,0,3,
	| 0,0,4,4,
	| 5,0,3,0,
	| 4,4,0,0,
	| 0,3,4,0,
	| 0,7,0,6,
	| 4,0,0,4,
	| 5,0,0,1,
	| 4,6,0,0,
	| 0,0,4,5,
	| 0,3,0,1,
	| 2,0,3,0,
	| 3,2,0,0,
	| 4,7,0,0,
	| 0,3,4,0,
	| 5,0,1,0,
	| 6,0,0,2,
	| 3,3,0,0,
	| 4,0,3,0,
	| 0,0,7,6,
	| 0,4,0,5,
	| 6,0,0,5,
	| 6,0,0,2,
	| 0,0,3,4,
	| 0,4,2,0,
	| 0,0,1,3,
	| 3,0,5,0,
	| 5,0,3,0,
	| 3,0,3,0,
	| 7,0,4,0,
	| 0,6,0,4,
	| 0,7,4,0,
	| 4,6,0,0,
	| 0,4,7,0,
	| 0,0,3,7,
	| 2,0,0,4,
	| 3,0,0,3,
	| 0,0,0,0, |];

nResources = 25;
mastery = [| false,false,true,false,
	| false,false,false,true,
	| false,false,false,true,
	| true,true,true,false,
	| true,false,false,false,
	| true,true,false,true,
	| true,true,false,true,
	| true,true,true,false,
	| true,false,true,false,
	| true,true,true,false,
	| true,true,false,false,
	| false,true,false,true,
	| true,false,true,true,
	| true,false,false,false,
	| false,true,true,true,
	| false,true,false,false,
	| false,true,true,false,
	| false,true,true,false,
	| false,false,true,false,
	| true,true,true,false,
	| false,true,true,true,
	| true,false,false,true,
	| false,true,true,false,
	| false,false,true,false,
	| false,false,false,true, |];

nPrecs = 73;
pred = [1,1,1,2,2,2,3,3,3,4,4,4,5,6,6,6,7,7,7,8,8,8,9,9,9,10,10,11,12,12,12,13,13,13,14,14,15,15,16,16,16,17,18,18,19,20,20,21,22,22,23,24,24,25,25,26,27,28,29,30,31,32,33,33,34,35,36,37,37,38,39,40,41];
succ = [2,3,4,9,22,7,21,5,8,10,6,15,11,41,18,23,27,13,14,17,37,31,28,19,12,34,19,20,20,30,16,25,19,31,26,31,37,29,36,21,23,34,21,39,26,23,24,34,33,27,37,25,36,40,32,33,35,35,36,33,38,39,39,40,35,38,41,38,40,41,42,42,42];

nUnrels = 504;
unpred = [2,2,2,2,2,2,2,2,2,2,2,3,3,3,3,3,3,3,3,3,3,3,3,3,3,3,3,3,3,3,4,4,4,4,4,4,4,4,4,4,4,4,4,4,4,4,4,4,4,5,5,5,5,5,5,5,5,5,5,5,5,5,5,5,5,5,5,5,5,5,5,5,5,6,6,6,6,6,6,6,6,6,6,6,6,6,6,6,6,6,6,6,6,6,6,6,6,6,7,7,7,7,7,7,7,7,7,7,7,7,7,7,7,7,7,7,7,7,8,8,8,8,8,8,8,8,8,8,8,8,8,8,8,8,8,8,8,8,8,8,8,8,8,9,9,9,9,9,9,9,9,9,9,9,10,10,10,10,10,10,10,10,10,10,10,10,10,10,10,10,10,10,10,10,10,10,11,11,11,11,11,11,11,11,11,11,11,11,11,11,11,11,11,11,11,12,12,12,12,12,12,12,12,12,12,12,12,13,13,13,13,13,13,13,13,13,13,13,13,13,13,13,13,13,13,14,14,14,14,14,14,14,14,14,14,14,14,14,14,14,14,14,14,14,14,15,15,15,15,15,15,15,15,15,15,15,15,15,15,15,15,15,15,15,15,16,16,16,16,16,16,16,16,16,16,16,16,16,16,16,16,17,17,17,17,17,17,17,17,17,17,17,17,17,17,17,17,17,17,17,17,18,18,18,18,18,18,18,18,18,18,18,18,18,18,18,18,18,19,19,19,19,19,19,19,19,19,19,19,19,19,19,19,19,19,19,20,20,20,20,20,20,20,20,20,20,20,21,21,21,21,21,21,21,21,21,21,21,21,21,21,21,21,22,22,22,22,22,22,22,22,22,22,22,22,23,23,23,23,23,23,23,23,23,23,23,23,23,23,24,24,24,24,24,24,24,24,24,24,24,25,25,25,25,25,25,25,25,25,25,25,25,25,26,26,26,26,26,26,26,26,26,26,26,26,27,27,27,27,27,27,27,27,27,27,27,28,28,28,28,28,28,28,28,28,28,29,29,29,29,29,29,29,29,29,29,30,30,30,30,30,30,30,30,31,31,31,31,31,31,31,31,32,32,32,32,32,32,32,32,33,33,33,33,33,33,34,34,34,34,35,35,35,35,36,36,36,36,37,38,38,39,39,40];
unsucc = [3,4,5,6,8,10,11,15,17,18,29,4,6,7,9,10,12,13,14,15,16,18,19,22,26,27,28,29,30,33,5,7,8,9,11,12,13,14,16,17,20,22,24,25,27,28,30,31,32,6,7,8,9,10,12,13,14,15,16,17,18,19,21,22,26,27,28,29,30,31,33,34,35,7,8,9,10,11,12,13,14,15,16,17,19,20,22,24,25,26,27,28,29,30,31,32,33,36,8,9,10,11,12,15,16,17,18,20,21,22,23,24,28,29,30,34,36,37,9,10,11,12,13,14,15,16,18,19,20,21,22,23,24,25,26,27,28,29,30,32,33,36,39,10,11,13,14,15,17,18,22,27,29,31,11,12,13,14,15,16,17,18,20,21,22,23,24,25,27,28,29,30,31,32,36,37,12,13,14,15,16,17,18,19,21,22,26,27,28,29,30,31,33,34,35,13,14,15,17,18,19,22,26,27,28,29,31,14,15,16,17,18,20,21,22,23,24,27,28,29,30,34,35,36,37,15,16,17,18,19,20,21,22,23,24,25,27,28,29,30,32,34,35,36,37,16,17,18,19,20,21,22,23,24,25,26,27,28,30,31,32,33,34,35,39,17,18,19,20,22,24,25,26,27,28,29,30,31,32,33,39,18,19,20,21,22,23,24,25,26,27,28,29,30,31,32,33,36,37,39,40,19,20,22,23,24,25,26,27,28,29,30,31,32,33,36,37,40,20,21,22,23,24,25,27,28,29,30,31,32,34,35,36,37,38,41,21,22,26,27,28,29,30,31,33,34,35,22,23,24,25,26,27,28,29,30,31,32,33,36,37,39,40,23,24,25,26,28,29,30,31,32,34,36,37,24,25,26,27,28,29,30,31,32,33,34,35,36,39,26,27,28,29,30,31,33,34,35,37,38,26,27,28,29,30,31,33,34,35,36,37,38,41,27,28,29,30,31,32,34,35,36,37,38,41,28,29,30,31,32,33,34,36,37,39,40,29,30,31,32,33,34,36,37,39,40,30,31,32,33,34,35,37,38,39,40,31,32,34,35,36,37,38,41,32,33,34,35,36,37,39,40,33,34,35,36,37,38,40,41,34,35,36,37,38,41,36,37,39,40,36,37,39,40,37,38,39,40,39,39,40,40,41,41];

USEFUL_RES = [{},
	{2,3,4,5,6,7,8,9,10,11,12,13,14,15,20,21,22,25},
	{1,4,5,6,7,8,9,10,11,13,14,15,17,18,19,20,21,22,23,24},
	{1,4,6,7,8,9,10,11,12,13,15,16,17,18,19,20,21,23,24},
	{2,3,4,5,6,7,8,9,10,11,12,13,14,15,20,21,22,25},
	{1,2,3,4,6,7,8,9,10,12,13,15,17,18,19,20,21,22,23,24,25},
	{1,4,5,6,7,8,9,10,11,13,14,15,17,18,19,20,21,22,23,24},
	{4,5,6,7,8,9,10,11,12,13,14,15,16,17,18,20,21,22,23},
	{1,4,6,7,8,9,10,11,12,13,15,16,17,18,19,20,21,23,24},
	{2,3,4,6,7,8,10,11,12,13,15,16,17,18,20,21,22,23,25},
	{2,3,4,5,6,7,8,9,10,11,12,13,14,15,20,21,22,25},
	{2,3,4,5,6,7,8,9,10,11,12,13,14,15,20,21,22,25},
	{4,5,6,7,8,9,10,11,12,13,14,15,16,17,18,20,21,22,23},
	{1,2,3,4,6,7,8,9,10,12,13,15,17,18,19,20,21,22,23,24,25},
	{2,3,4,6,7,8,10,11,12,13,15,16,17,18,20,21,22,23,25},
	{1,4,5,6,7,8,9,10,11,13,14,15,17,18,19,20,21,22,23,24},
	{4,5,6,7,8,9,10,11,12,13,14,15,16,17,18,20,21,22,23},
	{4,5,6,7,8,9,10,11,12,13,14,15,16,17,18,20,21,22,23},
	{1,4,6,7,8,9,10,11,12,13,15,16,17,18,19,20,21,23,24},
	{1,4,5,6,7,8,9,10,11,13,14,15,17,18,19,20,21,22,23,24},
	{2,3,4,5,6,7,8,9,10,11,12,13,14,15,20,21,22,25},
	{4,5,6,7,8,9,10,11,12,13,14,15,16,17,18,20,21,22,23},
	{1,4,5,6,7,8,9,10,11,13,14,15,17,18,19,20,21,22,23,24},
	{1,2,3,4,6,7,8,9,10,12,13,15,17,18,19,20,21,22,23,24,25},
	{2,3,4,6,7,8,10,11,12,13,15,16,17,18,20,21,22,23,25},
	{2,3,4,5,6,7,8,9,10,11,12,13,14,15,20,21,22,25},
	{2,3,4,5,6,7,8,9,10,11,12,13,14,15,20,21,22,25},
	{1,2,3,4,6,7,8,9,10,12,13,15,17,18,19,20,21,22,23,24,25},
	{1,4,6,7,8,9,10,11,12,13,15,16,17,18,19,20,21,23,24},
	{1,2,3,4,6,7,8,9,10,12,13,15,17,18,19,20,21,22,23,24,25},
	{1,4,5,6,7,8,9,10,11,13,14,15,17,18,19,20,21,22,23,24},
	{1,4,5,6,7,8,9,10,11,13,14,15,17,18,19,20,21,22,23,24},
	{1,4,5,6,7,8,9,10,11,13,14,15,17,18,19,20,21,22,23,24},
	{1,4,5,6,7,8,9,10,11,13,14,15,17,18,19,20,21,22,23,24},
	{2,3,4,6,7,8,10,11,12,13,15,16,17,18,20,21,22,23,25},
	{1,4,6,7,8,9,10,11,12,13,15,16,17,18,19,20,21,23,24},
	{4,5,6,7,8,9,10,11,12,13,14,15,16,17,18,20,21,22,23},
	{1,4,6,7,8,9,10,11,12,13,15,16,17,18,19,20,21,23,24},
	{1,2,3,4,6,7,8,9,10,12,13,15,17,18,19,20,21,22,23,24,25},
	{2,3,4,5,6,7,8,9,10,11,12,13,14,15,20,21,22,25},
	{2,3,4,5,6,7,8,9,10,11,12,13,14,15,20,21,22,25},
	{}];

POTENTIAL_ACT = [{3,4,6,7,9,14,16,19,20,23,24,28,29,30,31,32,33,34,36,38,39},
	{2,5,6,10,11,12,14,15,21,24,25,26,27,28,30,35,39,40,41},
	{2,5,6,10,11,12,14,15,21,24,25,26,27,28,30,35,39,40,41},
	{2,3,4,5,6,7,8,9,10,11,12,13,14,15,16,17,18,19,20,21,22,23,24,25,26,27,28,29,30,31,32,33,34,35,36,37,38,39,40,41},
	{2,3,5,7,8,11,12,13,16,17,18,20,21,22,23,26,27,31,32,33,34,37,40,41},
	{2,3,4,5,6,7,8,9,10,11,12,13,14,15,16,17,18,19,20,21,22,23,24,25,26,27,28,29,30,31,32,33,34,35,36,37,38,39,40,41},
	{2,3,4,5,6,7,8,9,10,11,12,13,14,15,16,17,18,19,20,21,22,23,24,25,26,27,28,29,30,31,32,33,34,35,36,37,38,39,40,41},
	{2,3,4,5,6,7,8,9,10,11,12,13,14,15,16,17,18,19,20,21,22,23,24,25,26,27,28,29,30,31,32,33,34,35,36,37,38,39,40,41},
	{2,3,4,5,6,7,8,9,11,12,13,14,16,17,18,19,20,21,22,23,24,26,27,28,29,30,31,32,33,34,36,37,38,39,40,41},
	{2,3,4,5,6,7,8,9,10,11,12,13,14,15,16,17,18,19,20,21,22,23,24,25,26,27,28,29,30,31,32,33,34,35,36,37,38,39,40,41},
	{2,3,4,5,7,8,9,10,11,12,13,15,16,17,18,19,20,21,22,23,25,26,27,29,31,32,33,34,35,36,37,38,40,41},
	{2,4,5,6,8,9,10,11,12,13,14,15,17,18,19,21,22,24,25,26,27,28,29,30,35,36,37,38,39,40,41},
	{2,3,4,5,6,7,8,9,10,11,12,13,14,15,16,17,18,19,20,21,22,23,24,25,26,27,28,29,30,31,32,33,34,35,36,37,38,39,40,41},
	{2,3,5,7,8,11,12,13,16,17,18,20,21,22,23,26,27,31,32,33,34,37,40,41},
	{2,3,4,5,6,7,8,9,10,11,12,13,14,15,16,17,18,19,20,21,22,23,24,25,26,27,28,29,30,31,32,33,34,35,36,37,38,39,40,41},
	{4,8,9,10,13,15,17,18,19,22,25,29,35,36,37,38},
	{3,4,6,7,8,9,10,13,14,15,16,17,18,19,20,22,23,24,25,28,29,30,31,32,33,34,35,36,37,38,39},
	{3,4,6,7,8,9,10,13,14,15,16,17,18,19,20,22,23,24,25,28,29,30,31,32,33,34,35,36,37,38,39},
	{3,4,6,7,9,14,16,19,20,23,24,28,29,30,31,32,33,34,36,38,39},
	{2,3,4,5,6,7,8,9,10,11,12,13,14,15,16,17,18,19,20,21,22,23,24,25,26,27,28,29,30,31,32,33,34,35,36,37,38,39,40,41},
	{2,3,4,5,6,7,8,9,10,11,12,13,14,15,16,17,18,19,20,21,22,23,24,25,26,27,28,29,30,31,32,33,34,35,36,37,38,39,40,41},
	{2,3,5,6,7,8,10,11,12,13,14,15,16,17,18,20,21,22,23,24,25,26,27,28,30,31,32,33,34,35,37,39,40,41},
	{3,4,6,7,8,9,10,13,14,15,16,17,18,19,20,22,23,24,25,28,29,30,31,32,33,34,35,36,37,38,39},
	{3,4,6,7,9,14,16,19,20,23,24,28,29,30,31,32,33,34,36,38,39},
	{2,5,6,10,11,12,14,15,21,24,25,26,27,28,30,35,39,40,41}];
